6 100 370
0 86 22
1 29 17 1 11
2 4 50 23 22
3 25 13 23 4
4 67 37 5 61
5 13 7 7 20
6 62 15 18 42
7 84 38 12 8
8 34 3 20 13
9 19 45 19 48
10 42 76 19 4
11 40 86 16 5
12 25 94 2 39
13 63 57 26 64
14 75 24 13 61
15 61 85 19 62
16 87 38 17 19
17 54 39 14 24
18 66 34 8 75
19 46 39 10 47
20 47 17 5 11
21 21 54 19 48
22 19 83 12 5
23 1 82 9 22
24 94 28 18 55
25 82 72 4 75
26 41 59 20 22
27 100 77 8 49
28 1 57 3 41
29 96 7 18 55
30 57 82 26 80
31 47 38 21 25
32 68 89 21 42
33 16 36 8 20
34 51 38 19 52
35 83 74 66 16
36 84 2 21 37
